
  32    4
  10   10   10   10

   0   0   0   0   0   5 2 13 29 30 31 
   9  10  10  10  10   1 3 
   8  10  10  10  10   2 9 4 
   3  10  10  10  10   2 15 5 
   5  10  10  10  10   2 28 6 
   6  10  10  10  10   1 7 
   3  10  10  10  10   1 8 
   3  10  10  10  10   2 24 10 
   2  10  10  10  10   1 10 
  10  10  10  10  10   1 11 
   6  10  10  10  10   1 12 
   9  10  10  10  10   2 27 14 
   4  10  10  10  10   2 27 17 
   2  10  10  10  10   1 16 
   2  10  10  10  10   1 16 
   2  10  10  10  10   1 17 
   5  10  10  10  10   1 18 
  10  10  10  10  10   1 19 
   7  10  10  10  10   1 20 
   1  10  10  10  10   1 21 
   5  10  10  10  10   1 22 
   2  10  10  10  10   1 23 
   2  10  10  10  10   1 25 
   9  10  10  10  10   1 25 
   5  10  10  10  10   1 26 
   6  10  10  10  10   1 32
   2  10  10  10  10   1 32
   5  10  10  10  10   1 32
   4  10  10  10  10   1 32
   9  10  10  10  10   1 32
   4  10  10  10  10   1 32
   0   0   0   0   0   0 
